<number of tasks>
50

<cycle time>
1000

<order strength>
0.199


<task times>
1 580
2 509
3 390
4 524
5 429
6 376
7 451
8 558
9 468
10 481
11 752
12 722
13 437
14 366
15 521
16 412
17 567
18 594
19 494
20 593
21 656
22 337
23 701
24 476
25 545
26 493
27 427
28 374
29 519
30 313
31 288
32 456
33 546
34 654
35 487
36 407
37 623
38 474
39 460
40 506
41 599
42 325
43 500
44 575
45 328
46 354
47 523
48 543
49 581
50 547

<precedence relations>
2,5
2,9
2,27
2,37
3,6
3,7
3,8
4,40
5,13
5,43
6,10
6,50
7,14
7,15
8,11
8,12
10,46
11,18
11,21
12,16
12,19
13,17
15,20
16,23
16,27
17,33
18,23
18,24
18,28
19,22
19,29
20,48
21,25
21,26
22,33
23,35
23,47
24,34
25,31
26,41
27,30
27,32
30,40
30,42
31,39
32,36
34,37
34,38
35,41
36,47
37,43
37,45
37,48
40,44
41,45
41,50
42,46
42,49

<end>
